500
1000
300
300
300
299
298
298
298
297
297
297
296
295
295
295
295
295
294
294
294
294
294
293
293
293
293
292
292
292
291
291
291
291
289
289
289
289
288
288
288
288
288
288
287
286
285
285
284
284
284
284
284
283
283
283
282
282
282
282
281
281
281
280
279
279
279
278
278
278
277
276
275
275
275
275
274
274
273
272
272
272
272
271
271
271
270
269
269
269
268
268
268
268
267
267
267
267
266
266
265
265
265
264
264
263
263
263
262
262
262
262
260
259
259
259
259
259
258
257
256
256
256
256
256
255
253
253
252
252
251
251
251
250
250
250
249
249
248
248
248
247
247
247
247
247
246
246
246
246
246
246
245
244
243
243
242
242
242
241
241
241
241
241
241
241
240
240
240
239
239
239
239
239
238
237
237
237
236
235
235
234
233
233
233
232
232
232
231
231
229
229
228
228
228
227
227
227
227
227
226
226
226
225
225
225
225
223
223
223
223
223
223
222
222
222
221
221
221
220
220
220
220
220
219
219
218
218
218
217
217
216
216
216
216
215
215
214
213
212
211
211
211
211
211
210
210
209
209
207
206
206
205
204
204
203
203
203
203
202
201
201
201
201
201
200
199
199
199
198
197
196
196
196
195
194
194
194
193
193
192
192
192
191
191
190
190
189
189
188
188
188
188
188
188
188
188
187
186
186
186
185
185
185
185
184
184
184
183
183
183
182
182
182
182
182
182
181
181
181
181
180
180
180
179
179
179
178
177
177
176
176
176
176
176
175
175
175
175
174
174
172
171
171
171
171
171
171
171
168
168
168
168
167
167
167
167
166
166
165
164
164
164
163
163
162
162
162
162
162
161
161
160
160
159
159
158
157
157
157
157
157
156
156
154
153
152
151
151
150
150
150
149
148
148
147
146
146
146
145
145
145
145
145
144
144
143
143
143
140
140
139
139
138
138
136
136
135
134
133
133
133
133
133
132
132
132
131
131
131
131
131
131
131
130
130
129
128
127
127
127
127
127
127
126
126
124
124
123
123
123
122
121
121
120
119
119
119
118
118
118
118
118
117
117
117
117
116
116
116
115
114
113
113
113
113
112
112
111
111
110
110
109
108
108
108
107
107
107
106
106
106
106
105
105
105
105
105
105
103
103
102
